
param T = 72.0;
CPLEX 12.7.1.0: optimal integer solution; objective 0.3472222222
95786 MIP simplex iterations
0 branch-and-bound nodes


param T = 60.0;
CPLEX 12.7.1.0: optimal integer solution; objective 0.3333333333
70285 MIP simplex iterations
0 branch-and-bound nodes

param T = 50.0;
CPLEX 12.7.1.0: optimal integer solution; objective 0.32
50291 MIP simplex iterations
0 branch-and-bound nodes

#10 pickup 10 place, allow teleportation back
param startNode = 0;
param endNode = 31;
param nrAGVs = 2;
param nTasks = 10;
param travelTask = 0;
param edgeCap = 1;
param epsilon = 1;
param taskLowerBound = 1;

param : ARCS :TAU :=
0 1 0
0 2 0
0 3 0
0 4 0
0 5 0
0 6 0
0 7 0
0 8 0
0 9 0
0 10 0
1 11 2
1 12 3
1 13 4
1 14 6
1 15 8
1 16 10
1 17 12
1 18 14
1 19 16
1 20 18
2 11 3
2 12 2
2 13 3
2 14 4
2 15 6
2 16 8
2 17 10
2 18 12
2 19 14
2 20 16
3 11 4
3 12 3
3 13 2
3 14 3
3 15 4
3 16 6
3 17 8
3 18 10
3 19 12
3 20 14
4 11 6
4 12 4
4 13 3
4 14 2
4 15 3
4 16 4
4 17 6
4 18 8
4 19 10
4 20 12
5 11 8
5 12 6
5 13 4
5 14 3
5 15 2
5 16 3
5 17 4
5 18 6
5 19 8
5 20 10
6 11 10
6 12 8
6 13 6
6 14 4
6 15 3
6 16 2
6 17 3
6 18 4
6 19 6
6 20 8
7 11 12
7 12 10
7 13 8
7 14 6
7 15 4
7 16 3
7 17 2
7 18 3
7 19 4
7 20 6
8 11 14
8 12 12
8 13 10
8 14 8
8 15 6
8 16 4
8 17 3
8 18 2
8 19 3
8 20 4
9 11 16
9 12 14
9 13 12
9 14 10
9 15 8
9 16 6
9 17 4
9 18 3
9 19 2
9 20 3
10 11 18
10 12 16
10 13 14
10 14 12
10 15 10
10 16 8
10 17 6
10 18 4
10 19 3
10 20 2
11 21 2
11 22 3
11 23 4
11 24 6
11 25 8
11 26 10
11 27 12
11 28 14
11 29 16
11 30 18
12 21 3
12 22 2
12 23 3
12 24 4
12 25 6
12 26 8
12 27 10
12 28 12
12 29 14
12 30 16
13 21 4
13 22 3
13 23 2
13 24 3
13 25 4
13 26 6
13 27 8
13 28 10
13 29 12
13 30 14
14 21 6
14 22 4
14 23 3
14 24 2
14 25 3
14 26 4
14 27 6
14 28 8
14 29 10
14 30 12
15 21 8
15 22 6
15 23 4
15 24 3
15 25 2
15 26 3
15 27 4
15 28 6
15 29 8
15 30 10
16 21 10
16 22 8
16 23 6
16 24 4
16 25 3
16 26 2
16 27 3
16 28 4
16 29 6
16 30 8
17 21 12
17 22 10
17 23 8
17 24 6
17 25 4
17 26 3
17 27 2
17 28 3
17 29 4
17 30 6
18 21 14
18 22 12
18 23 10
18 24 8
18 25 6
18 26 4
18 27 3
18 28 2
18 29 3
18 30 4
19 21 16
19 22 14
19 23 12
19 24 10
19 25 8
19 26 6
19 27 4
19 28 3
19 29 2
19 30 3
20 21 18
20 22 16
20 23 14
20 24 12
20 25 10
20 26 8
20 27 6
20 28 4
20 29 3
20 30 2
21 31 0
22 31 0
23 31 0
24 31 0
25 31 0
26 31 0
27 31 0
28 31 0
29 31 0
30 31 0
21 1 0
21 2 0
21 3 0
21 4 0
21 5 0
21 6 0
21 7 0
21 8 0
21 9 0
21 10 0
22 1 0
22 2 0
22 3 0
22 4 0
22 5 0
22 6 0
22 7 0
22 8 0
22 9 0
22 10 0
23 1 0
23 2 0
23 3 0
23 4 0
23 5 0
23 6 0
23 7 0
23 8 0
23 9 0
23 10 0
24 1 0
24 2 0
24 3 0
24 4 0
24 5 0
24 6 0
24 7 0
24 8 0
24 9 0
24 10 0
25 1 0
25 2 0
25 3 0
25 4 0
25 5 0
25 6 0
25 7 0
25 8 0
25 9 0
25 10 0
26 1 0
26 2 0
26 3 0
26 4 0
26 5 0
26 6 0
26 7 0
26 8 0
26 9 0
26 10 0
27 1 0
27 2 0
27 3 0
27 4 0
27 5 0
27 6 0
27 7 0
27 8 0
27 9 0
27 10 0
28 1 0
28 2 0
28 3 0
28 4 0
28 5 0
28 6 0
28 7 0
28 8 0
28 9 0
28 10 0
29 1 0
29 2 0
29 3 0
29 4 0
29 5 0
29 6 0
29 7 0
29 8 0
29 9 0
29 10 0
30 1 0
30 2 0
30 3 0
30 4 0
30 5 0
30 6 0
30 7 0
30 8 0
30 9 0
30 10 0;

param :src_tasks :=
1 1
2 9
3 5
4 8
5 7
6 2
7 6
8 3
9 5
10 7;

param :snk_tasks :=
1 25
2 28
3 23
4 30
5 26
6 20
7 29
8 21
9 22
10 22;
